DATASET = "thpack3";
INSTANCE = "075";

WIDTH = 233;
HEIGHT = 220;
LENGTH = 587;

NO_OF_SHAPES = 8;
size = [|
  101,81,24 |
  94,72,29 |
  79,72,47 |
  90,36,35 |
  68,51,40 |
  48,45,35 |
  108,84,69 |
  91,45,31 |
|];

verticality = [|
  0,0,1 |
  0,0,1 |
  1,1,1 |
  0,1,1 |
  1,1,1 |
  1,1,1 |
  1,1,1 |
  0,1,1 |
|];

box_count = [
  18,
  17,
  25,
  14,
  18,
  16,
  14,
  17,
];
